(set-logic SLIA)
(constraint (= (f "Polygonum amphibium") "Polygonum"))
(constraint (= (f "Hippuris vulgaris") "Hippuris"))
(constraint (= (f "Lysimachia vulgaris") "Lysimachia"))
(constraint (= (f "Juncus bulbosus ssp. bulbosus") "Juncus bulbosus"))
(constraint (= (f "Lycopus europaeus ssp. europaeus") "Lycopus europaeus"))
(constraint (= (f "Nymphaea alba") "Nymphaea"))
(check-synth)
(synth-fun f ((_arg_0 String)) String ((Start String (ntString)) (ntString String ((Str A) (str.++ ntString A))) (A String ((Str ConstString) (SubStr X P P))) (P Int ((Int ntInt) (Pos X Pattern ntInt Direction))) (Pattern String ((Str ConstString) "ProperCase" "CAPS" "lowercase" "Digits" "Alphabets" "Alphanumeric" "WhiteSpace" "ProperCaseWSpaces" "CAPSWSpaces" "lowercaseSpaces" "AlphabetsWSpaces")) (X String (_arg_0)) (ConstString String (_arg_0 "" " " "ssp.")) (Direction Int (0 1)) (ntInt Int (-5 -4 -3 -2 -1 0 1 2 3 4 5))))
